out/bwp_9_4_1_lp.out
3
8 0    8 1
3 0    3 0
0 0    2 2
5 0    7 2
